WARNING: for repeatability, setting FPU to use double precision
============================[ Problem Statistics ]=============================
|                                                                             |
|  Number of variables:           100                                         |
|  Number of clauses:             449                                         |
|  Parse time:                   0.00 s                                       |
|  Eliminated clauses:           0.00 Mb                                      |
|  Simplification time:          0.00 s                                       |
|                                                                             |
============================[ Search Statistics ]==============================
| Conflicts |          ORIGINAL         |          LEARNT          | Progress |
|           |    Vars  Clauses Literals |    Limit  Clauses Lit/Cl |          |
===============================================================================
|       100 |      94      435     1357 |      159      100      7 |  0.010 % |
===============================================================================
restarts              : 2
conflicts             : 173            (68651 /sec)
decisions             : 225            (0.00 % random) (89286 /sec)
propagations          : 4191           (1663095 /sec)
conflict literals     : 1179           (15.00 % deleted)
Memory used           : 13.00 MB
CPU time              : 0.00252 s

SATISFIABLE
